198 300 46 167 105 161 43 94 80 47 165 59 162 103 192 85 107 39 183 122 71 60 7 11 85 9 93 43 99 41 100 136 90 97 54 194 9 97 39 88 143 3 99 57 57 42 93 115 80 75 36 102 87 42 112 123 50 157 165 100 197 17 187 38 113 41 183 74 89 21 161 31 23 11 39 79 53 84 193 84 110 180 186 196 173 49 118 22 5 35 73 153 51 12 190 115 52 172 188 140 144 101 122 118 63 113 196 115 196 140 199 105 71 136 53 43 184 170 16 189 4 41 141 6 52 83 73 103 6 12 194 150 64 67 67 127 131 15 41 126 106 191 183 177 78 187 171 62 156 187 2 112 27 94 69 30 176 141 84 134 105 29 83 168 95 101 94 26 115 87 103 173 29 37 101 107 23 71 120 131 9 121 42 187 14 62 16 142 155 99 75 59 127 157 26 174 57 72 151 124 